RT is False
Default write of storage_offers_DA.csv just to have a file (but constraint should be inactive)
Reading model...
...model read.
creating competitive generators file...
...competitive generators recorded.
Loading data...
.. day-ahead data with real-time VRE data read.
Compiling instance...
...instance created.
Creating Offer Mitigation (model will solve as dispatch if TRUE)...
NOTE: storage offers will not be mitigated
...storage offer mitigation file created
Converting model to MPEC...
...converted
NOTE: initial MIP solve with only storage competitive to get feasible solution
Solving...

Welcome to IBM(R) ILOG(R) CPLEX(R) Interactive Optimizer 12.9.0.0
  with Simplex, Mixed Integer & Barrier Optimizers
5725-A06 5725-A29 5724-Y48 5724-Y49 5724-Y54 5724-Y55 5655-Y21
Copyright IBM Corp. 1988, 2019.  All Rights Reserved.

Type 'help' for a list of available commands.
Type 'help' followed by a command name for more
information on commands.

CPLEX> Logfile 'cplex.log' closed.
Logfile 'C:\Users\llavin\Desktop\test826\logs\tmptwtttse3.cplex.log' open.
CPLEX> New value for parallel optimization mode: -1
CPLEX> New value for mixed integer optimality gap tolerance: 0.1
CPLEX> New value for feasibility tolerance: 1e-09
CPLEX> New value for deterministic time limit in ticks: 10000
CPLEX> Problem 'C:\Users\llavin\Desktop\test826\logs\tmppstjc7iu.pyomo.lp' read.
Read time = 0.23 sec. (14.72 ticks)
CPLEX> Problem name         : C:\Users\llavin\Desktop\test826\logs\tmppstjc7iu.pyomo.lp
Objective sense      : Maximize
Variables            :   53805  [Nneg: 1,  Box: 22000,  Free: 4464,
                                 Binary: 27340]
Objective nonzeros   :    9029
Linear constraints   :  123205  [Less: 41346,  Greater: 59096,  Equal: 22763]
  Nonzeros           :  291753
  RHS nonzeros       :   67495

Variables            : Min LB: -5000.000        Max UB: 1000000.       
Objective nonzeros   : Min   : 0.07500000       Max   : 2500.000       
Linear constraints   :
  Nonzeros           : Min   : 0.07500000       Max   : 1000000.       
  RHS nonzeros       : Min   : 0.07500000       Max   : 1000000.       
CPLEX> CPXPARAM_Parallel                                -1
CPXPARAM_Simplex_Tolerances_Feasibility          1.0000000000000001e-09
CPXPARAM_DetTimeLimit                            10000
CPXPARAM_MIP_Tolerances_MIPGap                   0.10000000000000001
Tried aggregator 3 times.
MIP Presolve eliminated 88704 rows and 19028 columns.
MIP Presolve added 3372 rows and 0 columns.
MIP Presolve modified 24858 coefficients.
Aggregator did 12973 substitutions.
Reduced MIP has 24900 rows, 21248 columns, and 71032 nonzeros.
Reduced MIP has 8398 binaries, 0 generals, 0 SOSs, and 0 indicators.
Presolve time = 0.27 sec. (167.99 ticks)
Probing fixed 379 vars, tightened 4048 bounds.
Probing time = 0.06 sec. (19.04 ticks)
Tried aggregator 2 times.
MIP Presolve eliminated 853 rows and 759 columns.
MIP Presolve modified 3034 coefficients.
Aggregator did 35 substitutions.
Reduced MIP has 24012 rows, 20454 columns, and 68457 nonzeros.
Reduced MIP has 8019 binaries, 0 generals, 0 SOSs, and 0 indicators.
Presolve time = 0.11 sec. (89.14 ticks)
Probing fixed 0 vars, tightened 260 bounds.
Probing time = 0.14 sec. (22.12 ticks)
Clique table members: 44557.
MIP emphasis: balance optimality and feasibility.
MIP search method: dynamic search.
Parallel mode: opportunistic, using up to 32 threads.
Root relaxation solution time = 0.42 sec. (652.83 ticks)

        Nodes                                         Cuts/
   Node  Left     Objective  IInf  Best Integer    Best Bound    ItCnt     Gap

      0     0     3965.4494    64                   3965.4494     5590         
*     0+    0                         3964.3813     3965.4494             0.03%

Root node processing (before b&c):
  Real time             =    1.55 sec. (1259.20 ticks)
Parallel b&c, 32 threads:
  Real time             =    0.00 sec. (0.00 ticks)
  Sync time (average)   =    0.00 sec.
  Wait time (average)   =    0.00 sec.
                          ------------
Total (root+branch&cut) =    1.55 sec. (1259.20 ticks)

Solution pool: 1 solution saved.

MIP - Integer optimal, tolerance (0.1/1e-06):  Objective =  3.9643813170e+03
Current MIP best bound =  3.9654494451e+03 (gap = 1.06813, 0.03%)
Solution time =    1.55 sec.  Iterations = 5590  Nodes = 0 (1)
Deterministic time = 1259.35 ticks  (814.06 ticks/sec)

CPLEX> Incumbent solution written to file 'C:\Users\llavin\Desktop\test826\logs\tmpk4v99i8o.cplex.sol'.
CPLEX> NOTE: no warmstart specified for MIP iteration, default behavior is true
NOTE: resolving with all competitive generators using storage-only solution to warmstart
Solving...

Welcome to IBM(R) ILOG(R) CPLEX(R) Interactive Optimizer 12.9.0.0
  with Simplex, Mixed Integer & Barrier Optimizers
5725-A06 5725-A29 5724-Y48 5724-Y49 5724-Y54 5724-Y55 5655-Y21
Copyright IBM Corp. 1988, 2019.  All Rights Reserved.

Type 'help' for a list of available commands.
Type 'help' followed by a command name for more
information on commands.

CPLEX> Logfile 'cplex.log' closed.
Logfile 'C:\Users\llavin\Desktop\test826\logs\tmpqjdtiw97.cplex.log' open.
CPLEX> New value for parallel optimization mode: -1
CPLEX> New value for mixed integer optimality gap tolerance: 0.1
CPLEX> New value for feasibility tolerance: 1e-09
CPLEX> New value for deterministic time limit in ticks: 10000
CPLEX> Problem 'C:\Users\llavin\Desktop\test826\logs\tmpp13m22ln.pyomo.lp' read.
Read time = 0.23 sec. (14.74 ticks)
CPLEX> MIP start file 'C:\Users\llavin\Desktop\test826\logs\tmpesh6wi11.cplex.mst' read.
CPLEX> Problem name         : C:\Users\llavin\Desktop\test826\logs\tmpp13m22ln.pyomo.lp
Objective sense      : Maximize
Variables            :   54525  [Nneg: 1,  Box: 22720,  Free: 4464,
                                 Binary: 27340]
Objective nonzeros   :    9725
Linear constraints   :  123205  [Less: 41346,  Greater: 59096,  Equal: 22763]
  Nonzeros           :  291753
  RHS nonzeros       :   67495

Variables            : Min LB: -5000.000        Max UB: 1000000.       
Objective nonzeros   : Min   : 0.07500000       Max   : 2500.000       
Linear constraints   :
  Nonzeros           : Min   : 0.07500000       Max   : 1000000.       
  RHS nonzeros       : Min   : 0.07500000       Max   : 1000000.       
CPLEX> CPXPARAM_Parallel                                -1
CPXPARAM_Simplex_Tolerances_Feasibility          1.0000000000000001e-09
CPXPARAM_DetTimeLimit                            10000
CPXPARAM_MIP_Tolerances_MIPGap                   0.10000000000000001
1 of 1 MIP starts provided solutions.
MIP start 'm1' defined initial solution with objective 62645.5039.
Tried aggregator 3 times.
MIP Presolve eliminated 88704 rows and 19748 columns.
MIP Presolve added 3372 rows and 0 columns.
MIP Presolve modified 24858 coefficients.
Aggregator did 12973 substitutions.
Reduced MIP has 24900 rows, 21248 columns, and 71032 nonzeros.
Reduced MIP has 8398 binaries, 0 generals, 0 SOSs, and 0 indicators.
Presolve time = 0.27 sec. (168.35 ticks)
Probing fixed 379 vars, tightened 4048 bounds.
Probing time = 0.08 sec. (19.04 ticks)
Tried aggregator 2 times.
MIP Presolve eliminated 853 rows and 759 columns.
MIP Presolve modified 3034 coefficients.
Aggregator did 35 substitutions.
Reduced MIP has 24012 rows, 20454 columns, and 68457 nonzeros.
Reduced MIP has 8019 binaries, 0 generals, 0 SOSs, and 0 indicators.
Presolve time = 0.11 sec. (89.15 ticks)
Probing fixed 0 vars, tightened 260 bounds.
Probing time = 0.13 sec. (22.12 ticks)
Clique table members: 44557.
MIP emphasis: balance optimality and feasibility.
MIP search method: dynamic search.
Parallel mode: opportunistic, using up to 32 threads.
Root relaxation solution time = 0.45 sec. (688.20 ticks)

        Nodes                                         Cuts/
   Node  Left     Objective  IInf  Best Integer    Best Bound    ItCnt     Gap

*     0+    0                        62645.5039   7.35473e+07              --- 
      0     0    82475.1342   233    62645.5039    82475.1342     5952   31.65%
      0     0    82093.8456    77    62645.5039     Cuts: 435     6097   31.05%
      0     0    82093.2087    75    62645.5039     Cuts: 170     6161   31.04%
      0     0    82093.2087    78    62645.5039     Cuts: 137     6188   31.04%
      0     0    82093.2087    46    62645.5039      Cuts: 52     6202   31.04%
      0     0    82093.2087    51    62645.5039      Cuts: 23     6218   31.04%
      0     2    82093.2087    46    62645.5039      Cuts: 12     6218   31.04%
Elapsed time = 5.91 sec. (2826.43 ticks, tree = 0.02 MB, solutions = 1)
    315   170    67062.7858    26    62645.5039    82075.0481     7886   31.02%
   1021   192    66680.7473    19    62645.5039    82043.9029     7994   30.97%
   1808   742        cutoff          62645.5039    82042.5331    15218   30.96%
   2541   598    62661.7695    13    62645.5039    81815.3961    13953   30.60%
   3208   904    62749.2790    14    62645.5039    81815.3961    18048   30.60%
   3558  1352    infeasible          62645.5039    81815.3961    33101   30.60%

Cover cuts applied:  4
Implied bound cuts applied:  13
Flow cuts applied:  74
Mixed integer rounding cuts applied:  11
Gomory fractional cuts applied:  30

Root node processing (before b&c):
  Real time             =    3.73 sec. (2769.94 ticks)
Parallel b&c, 32 threads:
  Real time             =    8.05 sec. (1642.07 ticks)
  Sync time (average)   =    0.78 sec.
  Wait time (average)   =    0.00 sec.
                          ------------
Total (root+branch&cut) =   11.78 sec. (4412.01 ticks)

Solution pool: 1 solution saved.

MIP - Integer optimal, tolerance (0.1/1e-06):  Objective =  6.2645503875e+04
Current MIP best bound =  6.8827182624e+04 (gap = 6181.68, 9.87%)
Solution time =   11.80 sec.  Iterations = 35817  Nodes = 3611 (1431)
Deterministic time = 4412.17 ticks  (374.01 ticks/sec)

CPLEX> Incumbent solution written to file 'C:\Users\llavin\Desktop\test826\logs\tmpf_c4_c56.cplex.sol'.
CPLEX> Exporting results... 
